letting initialStacks = [37, 45, 41, 51, 38, 4, 49, 12, 46, 25, 16, 31, 34, 7, 32, 23, 19, 9, 13, 44, 2, 18, 3, 42, 27, 6, 36, 21, 14, 5, 10, 22, 30, 35, 43, 50, 15, 26, 47, 11, 20, 33, 28, 39, 40, 17, 24, 1, 8, 48, 29]
